\ Model matlab
\ LP format - for model browsing. Use MPS format to capture full model detail.
Minimize
  3 C0 + 3 C1 + 3 C2 - 52.60879781214719 C8 - 55.21842316338267 C9
   - 57.81372325201154 C10 + 0.008 C11 + 0.064 C12 + 0.064 C13 + 0.064 C14
   + 0.064 C15
Subject To
 R0: 2 C4 + C8 <= 2
 R1: - 3 C4 - C8 <= -2.22045e-16
 R2: <= 2.32
 R3: <= 45.68
 R4: - 2 C4 + C12 <= 0
 R5: - 3 C4 - C12 <= 0
 R6: 3 C4 - C8 + C12 <= 3
 R7: 2 C4 + C8 - C12 <= 2
 R8: 2 C5 + C9 <= 2
 R9: - 3 C5 - C9 <= -2.22045e-16
 R10: 0.16 C8 + 0.02 C12 <= 2.32
 R11: - 0.16 C8 - 0.02 C12 <= 45.68
 R12: - 2 C5 + C13 <= 0
 R13: - 3 C5 - C13 <= 0
 R14: 3 C5 - C9 + C13 <= 3
 R15: 2 C5 + C9 - C13 <= 2
 R16: 2 C6 + C10 <= 2
 R17: - 3 C6 - C10 <= -2.22045e-16
 R18: 0.16 C8 + 0.16 C9 + 0.02 C12 + 0.02 C13 <= 2.32
 R19: - 0.16 C8 - 0.16 C9 - 0.02 C12 - 0.02 C13 <= 45.68
 R20: - 2 C6 + C14 <= 0
 R21: - 3 C6 - C14 <= 0
 R22: 3 C6 - C10 + C14 <= 3
 R23: 2 C6 + C10 - C14 <= 2
 R24: 2 C7 + C11 <= 2
 R25: - 3 C7 - C11 <= -2.22045e-16
 R26: 0.16 C8 + 0.16 C9 + 0.16 C10 + 0.02 C12 + 0.02 C13 + 0.02 C14
   <= 2.32
 R27: - 0.16 C8 - 0.16 C9 - 0.16 C10 - 0.02 C12 - 0.02 C13 - 0.02 C14
   <= 45.68
 R28: - 2 C7 + C15 <= 0
 R29: - 3 C7 - C15 <= 0
 R30: 3 C7 - C11 + C15 <= 3
 R31: 2 C7 + C11 - C15 <= 2
 R32: - C0 - C4 <= 0
 R33: - C1 + C4 - C5 <= 0
 R34: - C2 + C5 - C6 <= 0
 R35: - C3 + C6 - C7 <= 0
 R36: - C0 + C4 <= 0
 R37: - C1 - C4 + C5 <= 0
 R38: - C2 - C5 + C6 <= 0
 R39: - C3 - C6 + C7 <= 0
Bounds
Binaries
 C4 C5 C6 C7
Semi-continuous
 C12 C13 C14 C15
End
